sat
(
(define-fun sym209 () String "Y")
(define-fun sym816 () String "G")
(define-fun sym2319 () String "G")
(define-fun sym551 () String "G")
(define-fun sym2953 () String "G")
(define-fun sym1457 () String "G")
(define-fun sym2535 () String "G")
(define-fun sym2107 () String "L")
(define-fun sym4328 () String "A")
(define-fun sym3799 () String "G")
(define-fun sym1673 () String "H")
(define-fun sym3169 () String "G")
(define-fun sym2751 () String "G")
(define-fun sym3587 () String "L")
(define-fun sym1894 () String "G")
(define-fun sym4015 () String "G")
(define-fun sym3385 () String "G")
(define-fun sym1241 () String "G")
(define-fun sym1032 () String "G")
(define-fun sym4231 () String "G")
(define-fun sym161 () String "")
)
